NAME : A-n32-k5
COMMENT : (Augerat et al, Min no of trucks: 5, Optimal value: 784)
TYPE : CVRP
DIMENSION : 32
EDGE_WEIGHT_TYPE : EUC_2D 
CAPACITY : 100
NODE_COORD_SECTION 
 1 50 5
 2 96 44
 3 60 51
 4 49 81
 5 93 72
 6 49 82
 7 58 30
 8 84 39
 9 20 70
 10 32 19
 11 31 52
 12 15 10
 13 98 42
 14 84 25
 15 61 59
 16 10 25
 17 68 11
 18 31 2
 19 19 32
 20 43 3
 21 50 93
 22 98 94
 23 5 42
 24 42 9
 25 61 62
 26 98 14
 27 88 45
 28 23 15
 29 24 17
 30 20 70
 31 85 60
 32 18 7
 33 50 5
 34 50 5
 35 50 5
 36 50 5
 37 50 5
DEMAND_SECTION 
1 0 
2 19 
3 21 
4 6 
5 19 
6 7 
7 12 
8 16 
9 6 
10 16 
11 8 
12 14 
13 21 
14 16 
15 3 
16 22 
17 18 
18 19 
19 1 
20 24 
21 8 
22 12 
23 4 
24 8 
25 24 
26 24 
27 2 
28 20 
29 15 
30 2 
31 14 
32 9 
33 0 
34 0 
35 0 
36 0 
37 0 
DEPOT_SECTION 
 1  
 -1  
EOF 
